8489092833460791717502,13,1,2,01,2,1,2,02,11,1,2,010,3,1,2,06,11,1,2,06,7,1,2,05,9,1,2,05,15,1,2,010,12,1,2,08,9,1,2,09,3,1,2,013,1,1,2,011,6,1,2,010,11,1,2,011,7,1,2,02,9,1,2,010,7,1,2,08,4,1,2,03,10,1,2,012,14,1,2,01,13,1,2,09,3,1,2,013,2,1,2,09,6,1,2,04,3,1,2,012,15,1,2,013,11,1,2,015,6,1,2,08,7,1,2,05,3,1,2,06,1,1,2,010,7,1,2,013,6,1,2,011,7,1,2,03,3,1,2,06,15,1,2,014,13,1,2,08,10,1,2,07,5,1,2,07,10,1,2,06,5,1,2,08,14,1,2,07,9,1,2,014,14,1,2,03,8,1,2,09,7,1,2,015,14,1,2,013,8,1,2,02,6,1,2,07,8,1,2,0